&CONTROL
  calculation = 'nscf'
  outdir = './out/'
  prefix = 'tas2'
  pseudo_dir = './pseudo/'
/
&SYSTEM
  ecutwfc =   45
  ibrav = 4
  a = 3.34
  c = 12.55
  nat = 6
  ntyp = 2
  nbnd = 250
  nosym = .true.
  noinv = .true.
/
&ELECTRONS
  conv_thr =   1.20d-09
  mixing_beta =   4.0d-01
/
ATOMIC_SPECIES
S      32.065   S.pz-hgh.UPF
Ta     180.94788 Ta.pz-hgh.UPF
ATOMIC_POSITIONS crystal
Ta           0.0000000000       0.0000000000       0.2500000000
Ta           0.0000000000       0.0000000000       0.7500000000
S            0.3333333300       0.6666666700       0.1265327800
S            0.6666666700       0.3333333300       0.8734672200
S            0.6666666600       0.3333333300       0.6265327800
S            0.3333333400       0.6666666700       0.3734672200
K_POINTS automatic
24 24 1 0 0 0